Traveling Salesman Problem/TSP_generados/Aleatorio1621103466_15.tsp
NAME: Aleatorio1621103466_15.tsp
COMMENT: Randomly generated scenario
TYPE: TSP
DIMENSION: 15
EDGE_WEIGHT_TYPE: ATT
NODE_COORD_SECTION
1 4.38 47.13
2 13.42 13.12
3 30.8 30.54
4 16.67 37.41
5 42.78 36.4
6 37.63 23.67
7 2.31 45.14
8 29.45 27.89
9 19.1 32.6
10 31.01 11.8
11 8.96 44.11
12 26.83 6.71
13 12.33 33.05
14 11.51 8.6
15 17.65 28.52
