Traveling Salesman Problem/TSP_generados/Aleatorio1621103466_15.opt.tour
NAME: Aleatorio1621103466_15.opt.tour
COMMENT: Optimal solution for Aleatorio1621103466_15 (144.55587423896162)
TYPE: TOUR
DIMENSION: 15
TOUR_SECTION
1 7 13 15 2 14 12 10 6 5 3 8 9 4 11
-1
EOF
